c Created with the Wolfram Language : www.wolfram.com
c 
p edge 80 476
e 2 5
e 6 7
e 4 9
e 8 9
e 6 10
e 8 10
e 1 11
e 4 11
e 4 12
e 10 12
e 5 13
e 8 13
e 9 13
e 10 13
e 11 13
e 1 14
e 3 14
e 6 14
e 7 14
e 8 14
e 10 14
e 13 14
e 1 16
e 15 16
e 4 17
e 15 17
e 3 18
e 13 18
e 14 18
e 3 19
e 6 19
e 15 19
e 8 20
e 11 20
e 12 21
e 2 22
e 6 22
e 14 22
e 20 22
e 3 23
e 11 23
e 14 23
e 20 23
e 6 24
e 8 24
e 14 24
e 15 24
e 17 24
e 18 24
e 23 24
e 5 25
e 8 25
e 10 25
e 12 25
e 14 25
e 19 25
e 7 26
e 9 26
e 15 26
e 23 26
e 21 27
e 5 28
e 6 28
e 16 28
e 20 28
e 25 28
e 26 28
e 20 29
e 23 29
e 8 30
e 13 30
e 14 30
e 23 30
e 7 31
e 8 31
e 14 31
e 20 31
e 24 31
e 17 32
e 4 33
e 17 33
e 13 34
e 19 34
e 20 34
e 21 34
e 25 34
e 7 35
e 27 35
e 28 35
e 33 35
e 34 35
e 5 36
e 7 36
e 11 36
e 22 36
e 2 37
e 10 37
e 18 37
e 26 37
e 6 38
e 8 38
e 20 38
e 32 38
e 2 39
e 7 39
e 14 39
e 33 39
e 35 39
e 38 39
e 1 40
e 10 40
e 31 40
e 38 40
e 8 41
e 29 41
e 39 41
e 12 42
e 14 42
e 18 42
e 22 42
e 36 42
e 2 43
e 6 43
e 8 43
e 10 43
e 14 43
e 24 43
e 30 43
e 31 43
e 33 43
e 40 43
e 42 43
e 40 44
e 43 44
e 8 45
e 13 45
e 21 45
e 27 45
e 34 45
e 36 45
e 8 46
e 13 46
e 28 46
e 44 46
e 2 47
e 10 47
e 16 47
e 20 47
e 31 47
e 44 47
e 2 48
e 7 48
e 12 48
e 15 48
e 19 48
e 26 48
e 27 48
e 6 49
e 10 49
e 14 49
e 17 49
e 22 49
e 28 49
e 32 49
e 38 49
e 7 50
e 9 50
e 11 50
e 20 50
e 23 50
e 28 50
e 29 50
e 37 50
e 44 50
e 48 50
e 49 50
e 4 51
e 8 51
e 13 51
e 29 51
e 31 51
e 41 51
e 4 52
e 10 52
e 11 52
e 16 52
e 19 52
e 22 52
e 39 52
e 42 52
e 45 52
e 49 52
e 6 53
e 11 53
e 12 53
e 15 53
e 16 53
e 22 53
e 24 53
e 31 53
e 34 53
e 44 53
e 46 53
e 51 53
e 2 54
e 7 54
e 8 54
e 16 54
e 19 54
e 48 54
e 51 54
e 6 55
e 11 55
e 15 55
e 16 55
e 20 55
e 27 55
e 40 55
e 44 55
e 3 56
e 21 56
e 23 56
e 25 56
e 26 56
e 38 56
e 39 56
e 49 56
e 3 57
e 4 57
e 5 57
e 13 57
e 14 57
e 24 57
e 27 57
e 28 57
e 29 57
e 37 57
e 38 57
e 45 57
e 46 57
e 3 58
e 25 58
e 27 58
e 44 58
e 47 58
e 57 58
e 3 59
e 5 59
e 17 59
e 18 59
e 29 59
e 31 59
e 34 59
e 50 59
e 51 59
e 57 59
e 13 60
e 19 60
e 21 60
e 36 60
e 47 60
e 50 60
e 53 60
e 3 61
e 5 61
e 12 61
e 14 61
e 34 61
e 36 61
e 42 61
e 49 61
e 50 61
e 52 61
e 59 61
e 17 62
e 20 62
e 22 62
e 31 62
e 38 62
e 42 62
e 43 62
e 48 62
e 6 63
e 13 63
e 34 63
e 39 63
e 40 63
e 53 63
e 59 63
e 62 63
e 7 64
e 13 64
e 15 64
e 21 64
e 26 64
e 39 64
e 46 64
e 48 64
e 50 64
e 53 64
e 56 64
e 60 64
e 1 65
e 6 65
e 17 65
e 45 65
e 56 65
e 57 65
e 60 65
e 5 66
e 7 66
e 12 66
e 17 66
e 22 66
e 32 66
e 35 66
e 36 66
e 43 66
e 44 66
e 57 66
e 62 66
e 3 67
e 6 67
e 8 67
e 16 67
e 21 67
e 22 67
e 35 67
e 42 67
e 55 67
e 57 67
e 16 68
e 19 68
e 40 68
e 52 68
e 55 68
e 1 69
e 4 69
e 9 69
e 15 69
e 20 69
e 21 69
e 22 69
e 26 69
e 28 69
e 31 69
e 40 69
e 47 69
e 57 69
e 58 69
e 4 70
e 17 70
e 20 70
e 41 70
e 43 70
e 44 70
e 52 70
e 61 70
e 64 70
e 65 70
e 66 70
e 1 71
e 16 71
e 25 71
e 26 71
e 35 71
e 43 71
e 44 71
e 45 71
e 51 71
e 52 71
e 70 71
e 41 72
e 46 72
e 52 72
e 53 72
e 58 72
e 66 72
e 1 73
e 7 73
e 11 73
e 30 73
e 35 73
e 45 73
e 51 73
e 59 73
e 60 73
e 65 73
e 70 73
e 16 74
e 17 74
e 30 74
e 35 74
e 43 74
e 47 74
e 51 74
e 55 74
e 56 74
e 69 74
e 2 75
e 5 75
e 12 75
e 17 75
e 19 75
e 23 75
e 25 75
e 31 75
e 38 75
e 42 75
e 46 75
e 65 75
e 71 75
e 73 75
e 74 75
e 8 76
e 9 76
e 11 76
e 31 76
e 42 76
e 50 76
e 55 76
e 56 76
e 57 76
e 59 76
e 60 76
e 61 76
e 66 76
e 68 76
e 69 76
e 1 77
e 32 77
e 36 77
e 38 77
e 42 77
e 43 77
e 44 77
e 51 77
e 52 77
e 61 77
e 65 77
e 73 77
e 5 78
e 8 78
e 14 78
e 21 78
e 33 78
e 39 78
e 43 78
e 51 78
e 54 78
e 59 78
e 66 78
e 73 78
e 76 78
e 1 79
e 2 79
e 8 79
e 13 79
e 15 79
e 29 79
e 52 79
e 56 79
e 58 79
e 62 79
e 66 79
e 70 79
e 78 79
e 21 80
e 27 80
e 31 80
e 32 80
e 44 80
e 50 80
e 57 80
e 62 80
e 69 80
